(set-logic HORN)
(set-info :source |
    Benchmark: C_VC
    Output by Princess (http://www.philipp.ruemmer.org/princess.shtml)
|)
(set-info :status sat)
;===============================================================================
; Encoding of Heap sorts and operations
;-------------------------------------------------------------------------------
(define-sort Addr() Int)
(declare-datatypes ((AddrRange 0))
                   (((AddrRange (AddrRangeStart Addr) (AddrRangeSize Int)))))

(declare-datatypes ((HeapObject 0))
                   (((O_Int (getInt Int)) (O_UInt (getUInt Int)) (O_Addr (getAddr Addr)) (defObj))))
(declare-datatypes ((BatchAllocResHeap 0) (AllocResHeap 0) (Heap 0))
                   (((BatchAllocResHeap   (newBatchHeap Heap) (newAddrRange AddrRange)))
                   ((AllocResHeap   (newHeap Heap) (newAddr Addr)))
                    ((HeapCtor (HeapSize Int)
                               (HeapContents (Array Addr HeapObject))))))
(define-fun nullAddr  () Addr 0)
(define-fun validHeap     ((h Heap) (p Addr)) Bool
  (and (>= (HeapSize h) p) (> p 0)))
(define-fun emptyHeap () Heap (
  HeapCtor 0 (( as const (Array Addr HeapObject)) defObj)))
(define-fun readHeap ((h Heap) (p Addr)) HeapObject
  (ite (validHeap h p)
       (select (HeapContents h) p)
       defObj))
(define-fun writeHeap ((h Heap) (p Addr) (o HeapObject)) Heap
  (ite (validHeap h p)
       (HeapCtor (HeapSize h) (store (HeapContents h) p o))
       h))
(define-fun allocHeap   ((h Heap) (o HeapObject)) AllocResHeap
  (AllocResHeap (HeapCtor (+ 1 (HeapSize h))
                    (store (HeapContents h) (+ 1 (HeapSize h)) o))
          (+ 1 (HeapSize h))))
(define-fun Heap-eq     ((h1 Heap) (h2 Heap)) Bool
  (forall ((p Addr))
          (and (= (validHeap h1 p) (validHeap h2 p))
               (= (readHeap h1 p) (readHeap h2 p)))))
(define-fun nthAddrRange((ar AddrRange) (n Int)) Addr
  (ite (and (>= n 0) (< n (AddrRangeSize ar)))
       (+ (AddrRangeStart ar) n)
       nullAddr))
(define-fun withinHeap ((ar AddrRange ) (p Addr)) Bool
  (and (>= p (AddrRangeStart ar)) (< p (+ (AddrRangeStart ar) (AddrRangeSize ar)))))

(declare-fun batchAllocHeap     (Heap Heap HeapObject Int Int) Bool)
(declare-fun batchAllocPostHeap (Heap Heap HeapObject Int) Bool)

(assert (forall ((h1 Heap) (h2 Heap) (o HeapObject) (n1 Int) (n2 Int))
                (=> (and (> n2 0) (batchAllocHeap h1 h2 o n1 n2))
                   (batchAllocHeap h1 (newHeap (allocHeap h2 o)) o n1 (- n2 1)))))
(assert (forall ((h1 Heap) (h2 Heap) (o HeapObject) (n1 Int) (n2 Int))
                (=> (and (<= n2 0) (batchAllocHeap h1 h2 o n1 n2))
                   (batchAllocPostHeap h1 h2 o n1))))

(declare-fun batchWriteHeap     (Heap Heap Addr Addr HeapObject Int Int) Bool)
(declare-fun batchWritePostHeap (Heap Heap Addr HeapObject Int) Bool)

(assert (forall ((h1 Heap) (h2 Heap) (a1 Addr) (a2 Addr) (o HeapObject) (n1 Int) (n2 Int))
                (=> (and (> n2 0) (batchWriteHeap h1 h2 a1 a2 o n1 n2))
                   (batchWriteHeap h1 (writeHeap h2 a2 o) a1 (+ a2 1) o n1 (- n2 1)))))
(assert (forall ((h1 Heap) (h2 Heap) (a1 Addr) (a2 Addr) (o HeapObject) (n1 Int) (n2 Int))
                (=> (and (<= n2 0) (batchWriteHeap h1 h2 a1 a2 o n1 n2))
                   (batchWritePostHeap h1 h2 a1 o n1))))

;===============================================================================
(declare-fun inv_main2 (Heap Int Int) Bool)
(declare-fun inv_main29 (Heap Int Int Int Int AddrRange Int Int) Bool)
(declare-fun inv_main40 (Heap Int Int Int Int AddrRange Int Int) Bool)
(declare-fun inv_main41 (Heap Int Int Int Int AddrRange Int Int) Bool)
(declare-fun inv_main49 (Heap Int Int Int Int AddrRange Int Int) Bool)
(declare-fun inv_main50 (Heap Int Int Int Int AddrRange Int Int) Bool)
(declare-fun inv_main58 (Heap Int Int Int Int AddrRange Int Int) Bool)
(declare-fun inv_main59 (Heap Int Int Int Int AddrRange Int Int) Bool)
(declare-fun inv_main67 (Heap Int Int Int Int AddrRange Int Int) Bool)
(declare-fun inv_main68 (Heap Int Int Int Int AddrRange Int Int) Bool)
(declare-fun inv_main75 (Heap Int Int Int Int AddrRange Int Int) Bool)
(declare-fun inv_main76 (Heap Int Int Int Int AddrRange Int Int) Bool)
(declare-fun inv_main78 (Heap Int Int Int Int AddrRange Int Int) Bool)
(assert (forall ((var0 Int) (var1 Int) (var2 Heap)) (or (not (and (and (= var1 0) (= var2 emptyHeap)) (= var0 100000))) (inv_main2 var2 var1 var0))))
(assert (forall ((var0 Int) (var1 Int) (var2 Int) (var3 AddrRange) (var4 Int) (var5 Int) (var6 Int) (var7 Int) (var8 Heap) (var9 Int)) (or (not (and (and (and (and (and (and (inv_main29 var8 var7 var6 var5 var4 var3 var2 var1) (<= 0 (+ var9 (* (- 1) var5)))) (or (not (<= 0 (+ (* (- 1) (+ var7 (* (- 5) var9))) (* (- 1) 1)))) (<= 0 (+ (* (- 1) var7) (* (- 1) 1))))) (or (not (<= 0 (+ (+ (* (- 5) var9) var7) (* (- 1) 1)))) (<= 0 (+ var7 (* (- 1) 1))))) (<= 0 (+ (+ (* 1 (+ var7 (* (- 5) var9))) 5) (* (- 1) 1)))) (<= 0 (+ (+ (* (- 1) (+ var7 (* (- 5) var9))) 5) (* (- 1) 1)))) (= var0 var2))) (inv_main41 var8 var7 var6 var5 var0 var3 var2 var1))))
(assert (forall ((var0 Int) (var1 AddrRange) (var2 Int) (var3 Int) (var4 Int) (var5 Int) (var6 Heap) (var7 Int) (var8 Int) (var9 Int) (var10 Int) (var11 AddrRange) (var12 Int) (var13 Int) (var14 Int) (var15 Int) (var16 Heap)) (or (not (and (and (and (and (and (and (and (and (and (and (and (inv_main49 var16 var15 var14 var13 var12 var11 var10 var9) (= var0 var9)) (= var7 var10)) (= var1 var11)) (= var2 var12)) (= var3 var13)) (= var4 var14)) (= var5 var15)) (= var6 (writeHeap var16 (nthAddrRange var11 (+ (* 5 var13) (* (- 1) 4))) (O_Int var12)))) (is-O_Int (readHeap var16 (nthAddrRange var11 (+ (* 5 var13) (* (- 1) 4)))))) (is-O_Int (readHeap var16 (nthAddrRange var11 (+ (* 5 var13) (* (- 1) 4)))))) (not (= var8 var7)))) (inv_main58 var6 var5 var4 var3 var8 var1 var7 var0))))
(assert (forall ((var0 Int) (var1 AddrRange) (var2 Int) (var3 Int) (var4 Int) (var5 Int) (var6 Heap) (var7 Int) (var8 Int) (var9 Int) (var10 Int) (var11 AddrRange) (var12 Int) (var13 Int) (var14 Int) (var15 Int) (var16 Heap)) (or (not (and (and (and (and (and (and (and (and (and (and (and (inv_main50 var16 var15 var14 var13 var12 var11 var10 var9) (= var0 var9)) (= var7 var10)) (= var1 var11)) (= var2 var12)) (= var3 var13)) (= var4 var14)) (= var5 var15)) (= var6 (writeHeap var16 (nthAddrRange var11 (+ (* 5 var13) (* (- 1) 4))) (O_Int var9)))) (is-O_Int (readHeap var16 (nthAddrRange var11 (+ (* 5 var13) (* (- 1) 4)))))) (is-O_Int (readHeap var16 (nthAddrRange var11 (+ (* 5 var13) (* (- 1) 4)))))) (not (= var8 var7)))) (inv_main58 var6 var5 var4 var3 var8 var1 var7 var0))))
(assert (forall ((var0 Int) (var1 AddrRange) (var2 Int) (var3 Int) (var4 Int) (var5 Int) (var6 Heap) (var7 Int) (var8 Int) (var9 Int) (var10 Int) (var11 AddrRange) (var12 Int) (var13 Int) (var14 Int) (var15 Int) (var16 Heap)) (or (not (and (and (and (and (and (and (and (and (and (and (and (inv_main40 var16 var15 var14 var13 var12 var11 var10 var9) (= var0 var9)) (= var7 var10)) (= var1 var11)) (= var2 var12)) (= var3 var13)) (= var4 var14)) (= var5 var15)) (= var6 (writeHeap var16 (nthAddrRange var11 (+ (* 5 var13) (* (- 1) 5))) (O_Int var12)))) (is-O_Int (readHeap var16 (nthAddrRange var11 (+ (* 5 var13) (* (- 1) 5)))))) (is-O_Int (readHeap var16 (nthAddrRange var11 (+ (* 5 var13) (* (- 1) 5)))))) (not (= var8 var7)))) (inv_main49 var6 var5 var4 var3 var8 var1 var7 var0))))
(assert (forall ((var0 Int) (var1 AddrRange) (var2 Int) (var3 Int) (var4 Int) (var5 Int) (var6 Heap) (var7 Int) (var8 Int) (var9 Int) (var10 Int) (var11 AddrRange) (var12 Int) (var13 Int) (var14 Int) (var15 Int) (var16 Heap)) (or (not (and (and (and (and (and (and (and (and (and (and (and (inv_main41 var16 var15 var14 var13 var12 var11 var10 var9) (= var0 var9)) (= var7 var10)) (= var1 var11)) (= var2 var12)) (= var3 var13)) (= var4 var14)) (= var5 var15)) (= var6 (writeHeap var16 (nthAddrRange var11 (+ (* 5 var13) (* (- 1) 5))) (O_Int var9)))) (is-O_Int (readHeap var16 (nthAddrRange var11 (+ (* 5 var13) (* (- 1) 5)))))) (is-O_Int (readHeap var16 (nthAddrRange var11 (+ (* 5 var13) (* (- 1) 5)))))) (not (= var8 var7)))) (inv_main49 var6 var5 var4 var3 var8 var1 var7 var0))))
(assert (forall ((var0 Int) (var1 AddrRange) (var2 Int) (var3 Int) (var4 Int) (var5 Int) (var6 Heap) (var7 Int) (var8 Int) (var9 Int) (var10 Int) (var11 AddrRange) (var12 Int) (var13 Int) (var14 Int) (var15 Int) (var16 Heap)) (or (not (and (and (and (and (and (and (and (and (and (and (and (inv_main58 var16 var15 var14 var13 var12 var11 var10 var9) (= var0 var9)) (= var7 var10)) (= var1 var11)) (= var2 var12)) (= var3 var13)) (= var4 var14)) (= var5 var15)) (= var6 (writeHeap var16 (nthAddrRange var11 (+ (* 5 var13) (* (- 1) 3))) (O_Int var12)))) (is-O_Int (readHeap var16 (nthAddrRange var11 (+ (* 5 var13) (* (- 1) 3)))))) (is-O_Int (readHeap var16 (nthAddrRange var11 (+ (* 5 var13) (* (- 1) 3)))))) (= var8 var7))) (inv_main68 var6 var5 var4 var3 var8 var1 var7 var0))))
(assert (forall ((var0 Int) (var1 AddrRange) (var2 Int) (var3 Int) (var4 Int) (var5 Int) (var6 Heap) (var7 Int) (var8 Int) (var9 Int) (var10 Int) (var11 AddrRange) (var12 Int) (var13 Int) (var14 Int) (var15 Int) (var16 Heap)) (or (not (and (and (and (and (and (and (and (and (and (and (and (inv_main59 var16 var15 var14 var13 var12 var11 var10 var9) (= var0 var9)) (= var7 var10)) (= var1 var11)) (= var2 var12)) (= var3 var13)) (= var4 var14)) (= var5 var15)) (= var6 (writeHeap var16 (nthAddrRange var11 (+ (* 5 var13) (* (- 1) 3))) (O_Int var9)))) (is-O_Int (readHeap var16 (nthAddrRange var11 (+ (* 5 var13) (* (- 1) 3)))))) (is-O_Int (readHeap var16 (nthAddrRange var11 (+ (* 5 var13) (* (- 1) 3)))))) (= var8 var7))) (inv_main68 var6 var5 var4 var3 var8 var1 var7 var0))))
(assert (forall ((var0 Int) (var1 AddrRange) (var2 Int) (var3 Int) (var4 Int) (var5 Int) (var6 Heap) (var7 Int) (var8 Int) (var9 Int) (var10 Int) (var11 AddrRange) (var12 Int) (var13 Int) (var14 Int) (var15 Int) (var16 Heap)) (or (not (and (and (and (and (and (and (and (and (and (and (and (inv_main49 var16 var15 var14 var13 var12 var11 var10 var9) (= var0 var9)) (= var7 var10)) (= var1 var11)) (= var2 var12)) (= var3 var13)) (= var4 var14)) (= var5 var15)) (= var6 (writeHeap var16 (nthAddrRange var11 (+ (* 5 var13) (* (- 1) 4))) (O_Int var12)))) (is-O_Int (readHeap var16 (nthAddrRange var11 (+ (* 5 var13) (* (- 1) 4)))))) (is-O_Int (readHeap var16 (nthAddrRange var11 (+ (* 5 var13) (* (- 1) 4)))))) (= var8 var7))) (inv_main59 var6 var5 var4 var3 var8 var1 var7 var0))))
(assert (forall ((var0 Int) (var1 AddrRange) (var2 Int) (var3 Int) (var4 Int) (var5 Int) (var6 Heap) (var7 Int) (var8 Int) (var9 Int) (var10 Int) (var11 AddrRange) (var12 Int) (var13 Int) (var14 Int) (var15 Int) (var16 Heap)) (or (not (and (and (and (and (and (and (and (and (and (and (and (inv_main50 var16 var15 var14 var13 var12 var11 var10 var9) (= var0 var9)) (= var7 var10)) (= var1 var11)) (= var2 var12)) (= var3 var13)) (= var4 var14)) (= var5 var15)) (= var6 (writeHeap var16 (nthAddrRange var11 (+ (* 5 var13) (* (- 1) 4))) (O_Int var9)))) (is-O_Int (readHeap var16 (nthAddrRange var11 (+ (* 5 var13) (* (- 1) 4)))))) (is-O_Int (readHeap var16 (nthAddrRange var11 (+ (* 5 var13) (* (- 1) 4)))))) (= var8 var7))) (inv_main59 var6 var5 var4 var3 var8 var1 var7 var0))))
(assert (forall ((var0 Int) (var1 AddrRange) (var2 Int) (var3 Int) (var4 Int) (var5 Int) (var6 Heap) (var7 Int) (var8 Int) (var9 Int) (var10 Int) (var11 AddrRange) (var12 Int) (var13 Int) (var14 Int) (var15 Int) (var16 Heap)) (or (not (and (and (and (and (and (and (and (and (and (and (and (inv_main67 var16 var15 var14 var13 var12 var11 var10 var9) (= var0 var9)) (= var7 var10)) (= var1 var11)) (= var2 var12)) (= var3 var13)) (= var4 var14)) (= var5 var15)) (= var6 (writeHeap var16 (nthAddrRange var11 (+ (* 5 var13) (* (- 1) 2))) (O_Int var12)))) (is-O_Int (readHeap var16 (nthAddrRange var11 (+ (* 5 var13) (* (- 1) 2)))))) (is-O_Int (readHeap var16 (nthAddrRange var11 (+ (* 5 var13) (* (- 1) 2)))))) (= var8 var7))) (inv_main76 var6 var5 var4 var3 var8 var1 var7 var0))))
(assert (forall ((var0 Int) (var1 AddrRange) (var2 Int) (var3 Int) (var4 Int) (var5 Int) (var6 Heap) (var7 Int) (var8 Int) (var9 Int) (var10 Int) (var11 AddrRange) (var12 Int) (var13 Int) (var14 Int) (var15 Int) (var16 Heap)) (or (not (and (and (and (and (and (and (and (and (and (and (and (inv_main68 var16 var15 var14 var13 var12 var11 var10 var9) (= var0 var9)) (= var7 var10)) (= var1 var11)) (= var2 var12)) (= var3 var13)) (= var4 var14)) (= var5 var15)) (= var6 (writeHeap var16 (nthAddrRange var11 (+ (* 5 var13) (* (- 1) 2))) (O_Int var9)))) (is-O_Int (readHeap var16 (nthAddrRange var11 (+ (* 5 var13) (* (- 1) 2)))))) (is-O_Int (readHeap var16 (nthAddrRange var11 (+ (* 5 var13) (* (- 1) 2)))))) (= var8 var7))) (inv_main76 var6 var5 var4 var3 var8 var1 var7 var0))))
(assert (forall ((var0 Int) (var1 Int) (var2 Int) (var3 AddrRange) (var4 Int) (var5 Int) (var6 Int) (var7 Int) (var8 Heap) (var9 Int)) (or (not (and (and (and (and (and (and (inv_main29 var8 var7 var6 var5 var4 var3 var2 var1) (<= 0 (+ var9 (* (- 1) var5)))) (or (not (<= 0 (+ (* (- 1) (+ var7 (* (- 5) var9))) (* (- 1) 1)))) (<= 0 (+ (* (- 1) var7) (* (- 1) 1))))) (or (not (<= 0 (+ (+ (* (- 5) var9) var7) (* (- 1) 1)))) (<= 0 (+ var7 (* (- 1) 1))))) (<= 0 (+ (+ (* 1 (+ var7 (* (- 5) var9))) 5) (* (- 1) 1)))) (<= 0 (+ (+ (* (- 1) (+ var7 (* (- 5) var9))) 5) (* (- 1) 1)))) (not (= var0 var2)))) (inv_main40 var8 var7 var6 var5 var0 var3 var2 var1))))
(assert (forall ((var0 Int) (var1 Int) (var2 Int) (var3 AddrRange) (var4 Int) (var5 Int) (var6 Int) (var7 Int) (var8 Heap) (var9 Int)) (or (not (and (and (and (inv_main29 var8 var7 var6 var5 var4 var3 var2 var1) (= var0 0)) (not (or (not (and (and (and (or (not (<= 0 (+ (+ (* (- 5) var9) var7) (* (- 1) 1)))) (<= 0 (+ var7 (* (- 1) 1)))) (<= 0 (+ (+ (* 1 (+ var7 (* (- 5) var9))) 5) (* (- 1) 1)))) (<= 0 (+ (+ (* (- 1) (+ var7 (* (- 5) var9))) 5) (* (- 1) 1)))) (or (not (<= 0 (+ (* (- 1) (+ var7 (* (- 5) var9))) (* (- 1) 1)))) (<= 0 (+ (* (- 1) var7) (* (- 1) 1)))))) (<= 0 (+ var9 (* (- 1) var5)))))) (<= 0 (+ var7 (* (- 1) 1))))) (inv_main78 var8 var7 var6 var0 var4 var3 var2 var1))))
(assert (forall ((var0 Int) (var1 Int) (var2 Int) (var3 AddrRange) (var4 Int) (var5 Int) (var6 Int) (var7 Int) (var8 Heap)) (or (not (and (and (and (inv_main78 var8 var7 var6 var5 var4 var3 var2 var1) (= var0 (+ var5 1))) (is-O_Int (readHeap var8 (nthAddrRange var3 var5)))) (<= 0 (+ (+ (* (- 1) (+ var5 1)) var7) (* (- 1) 1))))) (inv_main78 var8 var7 var6 var0 var4 var3 var2 var1))))
(assert (forall ((var0 Int) (var1 Int) (var2 Int) (var3 AddrRange) (var4 Int) (var5 Int) (var6 Int) (var7 Int) (var8 Heap) (var9 Int) (var10 Int) (var11 AddrRange) (var12 Int) (var13 Int) (var14 Int) (var15 Int) (var16 Heap)) (or (not (and (and (and (and (and (and (and (and (and (and (and (inv_main75 var16 var15 var14 var13 var12 var11 var10 var9) (= var0 (+ var5 1))) (= var1 var9)) (= var2 var10)) (= var3 var11)) (= var4 var12)) (= var5 var13)) (= var6 var14)) (= var7 var15)) (= var8 (writeHeap var16 (nthAddrRange var11 (+ (* 5 var13) (* (- 1) 1))) (O_Int var12)))) (is-O_Int (readHeap var16 (nthAddrRange var11 (+ (* 5 var13) (* (- 1) 1)))))) (is-O_Int (readHeap var16 (nthAddrRange var11 (+ (* 5 var13) (* (- 1) 1))))))) (inv_main29 var8 var7 var6 var0 var4 var3 var2 var1))))
(assert (forall ((var0 Int) (var1 Int) (var2 Int) (var3 AddrRange) (var4 Int) (var5 Int) (var6 Int) (var7 Int) (var8 Heap) (var9 Int) (var10 Int) (var11 AddrRange) (var12 Int) (var13 Int) (var14 Int) (var15 Int) (var16 Heap)) (or (not (and (and (and (and (and (and (and (and (and (and (and (inv_main76 var16 var15 var14 var13 var12 var11 var10 var9) (= var0 (+ var5 1))) (= var1 var9)) (= var2 var10)) (= var3 var11)) (= var4 var12)) (= var5 var13)) (= var6 var14)) (= var7 var15)) (= var8 (writeHeap var16 (nthAddrRange var11 (+ (* 5 var13) (* (- 1) 1))) (O_Int var9)))) (is-O_Int (readHeap var16 (nthAddrRange var11 (+ (* 5 var13) (* (- 1) 1)))))) (is-O_Int (readHeap var16 (nthAddrRange var11 (+ (* 5 var13) (* (- 1) 1))))))) (inv_main29 var8 var7 var6 var0 var4 var3 var2 var1))))
(assert (forall ((var0 Int) (var1 Int) (var2 Int) (var3 Int) (var4 Int) (var5 Int) (var6 Int) (var7 Int) (var8 Heap) (var9 Int) (var10 Int) (var11 AddrRange) (var12 AddrRange) (var13 Int) (var14 Int) (var15 Int) (var16 Int) (var17 Int) (var18 Int) (var19 Int) (var20 Int) (var21 Heap) (var22 Heap) (var23 Int) (var24 Int) (var25 Int) (var26 Heap) (var27 Int) (var28 Int) (var29 Int) (var30 Int) (var31 Int) (var32 Int)) (or (not (and (batchAllocPostHeap var8 var21 (O_Int var7) var6) (and (and (and (and (and (and (and (and (and (and (and (and (and (and (and (and (and (and (and (and (and (and (and (and (and (and (and (and (and (inv_main2 var26 var25 var24) (= var0 1)) (or (and (<= 0 (+ (+ (* (- 1) var1) var24) (* (- 1) 1))) (= var2 1)) (and (not (<= 0 (+ (+ (* (- 1) var1) var24) (* (- 1) 1)))) (= var2 0)))) (= var5 var24)) (= var6 var1)) (= var8 var26)) (<= 0 (+ (+ (* (- 1) 1) var1) (* (- 1) 1)))) (not (= var2 0))) (= var11 (AddrRange (ite (<= 0 (+ var6 (- 1))) (+ (HeapSize var8) 1) (HeapSize var8)) var6))) (= var13 var3)) (= var15 var4)) (= var17 var5)) (= var19 var6)) true) (= var31 0)) (= var19 (+ (* 5 var32) var31))) (or (not (<= 0 (+ (* (- 1) var31) (* (- 1) 1)))) (<= 0 (+ (* (- 1) var19) (* (- 1) 1))))) (or (not (<= 0 (+ var31 (* (- 1) 1)))) (<= 0 (+ var19 (* (- 1) 1))))) (<= 0 (+ (+ (* 1 var31) 5) (* (- 1) 1)))) (<= 0 (+ (+ (* (- 1) var31) 5) (* (- 1) 1)))) (or (and (and (and (and (and (and (= var27 0) (= var19 (+ (* 5 var28) var27))) (or (not (<= 0 (+ (* (- 1) var27) (* (- 1) 1)))) (<= 0 (+ (* (- 1) var19) (* (- 1) 1))))) (or (not (<= 0 (+ var27 (* (- 1) 1)))) (<= 0 (+ var19 (* (- 1) 1))))) (<= 0 (+ (+ (* 1 var27) 5) (* (- 1) 1)))) (<= 0 (+ (+ (* (- 1) var27) 5) (* (- 1) 1)))) (= var23 1)) (and (not (or (not (and (and (and (and (or (not (<= 0 (+ (* (- 1) var29) (* (- 1) 1)))) (<= 0 (+ (* (- 1) var19) (* (- 1) 1)))) (or (not (<= 0 (+ var29 (* (- 1) 1)))) (<= 0 (+ var19 (* (- 1) 1))))) (<= 0 (+ (+ (* 1 var29) 5) (* (- 1) 1)))) (<= 0 (+ (+ (* (- 1) var29) 5) (* (- 1) 1)))) (= var19 (+ (* 5 var30) var29)))) (= var29 0))) (= var23 0)))) (= var9 10)) (= var10 0)) (= var12 var11)) (= var14 var13)) (= var16 var15)) (= var18 var17)) (= var20 var19)) (= var22 var21)) (not (= var23 0))))) (inv_main29 var22 var20 var18 var0 var14 var12 var10 var9))))
(assert (forall ((var0 Int) (var1 Int) (var2 Int) (var3 Int) (var4 Int) (var5 Int) (var6 Int) (var7 Int) (var8 Heap) (var9 Int) (var10 Int) (var11 AddrRange) (var12 AddrRange) (var13 Int) (var14 Int) (var15 Int) (var16 Int) (var17 Int) (var18 Int) (var19 Int) (var20 Int) (var21 Heap) (var22 Heap) (var23 Int) (var24 Int) (var25 Int) (var26 Heap) (var27 Int) (var28 Int) (var29 Int) (var30 Int) (var31 Int) (var32 Int)) (or (not (and (and (and (and (and (and (and (and (and (and (and (and (and (and (and (and (and (and (and (and (and (and (and (and (and (and (and (and (and (inv_main2 var26 var25 var24) (= var0 1)) (or (and (<= 0 (+ (+ (* (- 1) var1) var24) (* (- 1) 1))) (= var2 1)) (and (not (<= 0 (+ (+ (* (- 1) var1) var24) (* (- 1) 1)))) (= var2 0)))) (= var5 var24)) (= var6 var1)) (= var8 var26)) (<= 0 (+ (+ (* (- 1) 1) var1) (* (- 1) 1)))) (not (= var2 0))) (= var11 (AddrRange (ite (<= 0 (+ var6 (- 1))) (+ (HeapSize var8) 1) (HeapSize var8)) var6))) (= var13 var3)) (= var15 var4)) (= var17 var5)) (= var19 var6)) true) (= var31 0)) (= var19 (+ (* 5 var32) var31))) (or (not (<= 0 (+ (* (- 1) var31) (* (- 1) 1)))) (<= 0 (+ (* (- 1) var19) (* (- 1) 1))))) (or (not (<= 0 (+ var31 (* (- 1) 1)))) (<= 0 (+ var19 (* (- 1) 1))))) (<= 0 (+ (+ (* 1 var31) 5) (* (- 1) 1)))) (<= 0 (+ (+ (* (- 1) var31) 5) (* (- 1) 1)))) (or (and (and (and (and (and (and (= var27 0) (= var19 (+ (* 5 var28) var27))) (or (not (<= 0 (+ (* (- 1) var27) (* (- 1) 1)))) (<= 0 (+ (* (- 1) var19) (* (- 1) 1))))) (or (not (<= 0 (+ var27 (* (- 1) 1)))) (<= 0 (+ var19 (* (- 1) 1))))) (<= 0 (+ (+ (* 1 var27) 5) (* (- 1) 1)))) (<= 0 (+ (+ (* (- 1) var27) 5) (* (- 1) 1)))) (= var23 1)) (and (not (or (not (and (and (and (and (or (not (<= 0 (+ (* (- 1) var29) (* (- 1) 1)))) (<= 0 (+ (* (- 1) var19) (* (- 1) 1)))) (or (not (<= 0 (+ var29 (* (- 1) 1)))) (<= 0 (+ var19 (* (- 1) 1))))) (<= 0 (+ (+ (* 1 var29) 5) (* (- 1) 1)))) (<= 0 (+ (+ (* (- 1) var29) 5) (* (- 1) 1)))) (= var19 (+ (* 5 var30) var29)))) (= var29 0))) (= var23 0)))) (= var9 10)) (= var10 0)) (= var12 var11)) (= var14 var13)) (= var16 var15)) (= var18 var17)) (= var20 var19)) (= var22 var21)) (not (= var23 0)))) (batchAllocHeap var8 var8 (O_Int var7) var6 var6))))
(assert (forall ((var0 Int) (var1 AddrRange) (var2 Int) (var3 Int) (var4 Int) (var5 Int) (var6 Heap) (var7 Int) (var8 Int) (var9 Int) (var10 Int) (var11 AddrRange) (var12 Int) (var13 Int) (var14 Int) (var15 Int) (var16 Heap)) (or (not (and (and (and (and (and (and (and (and (and (and (and (inv_main40 var16 var15 var14 var13 var12 var11 var10 var9) (= var0 var9)) (= var7 var10)) (= var1 var11)) (= var2 var12)) (= var3 var13)) (= var4 var14)) (= var5 var15)) (= var6 (writeHeap var16 (nthAddrRange var11 (+ (* 5 var13) (* (- 1) 5))) (O_Int var12)))) (is-O_Int (readHeap var16 (nthAddrRange var11 (+ (* 5 var13) (* (- 1) 5)))))) (is-O_Int (readHeap var16 (nthAddrRange var11 (+ (* 5 var13) (* (- 1) 5)))))) (= var8 var7))) (inv_main50 var6 var5 var4 var3 var8 var1 var7 var0))))
(assert (forall ((var0 Int) (var1 AddrRange) (var2 Int) (var3 Int) (var4 Int) (var5 Int) (var6 Heap) (var7 Int) (var8 Int) (var9 Int) (var10 Int) (var11 AddrRange) (var12 Int) (var13 Int) (var14 Int) (var15 Int) (var16 Heap)) (or (not (and (and (and (and (and (and (and (and (and (and (and (inv_main41 var16 var15 var14 var13 var12 var11 var10 var9) (= var0 var9)) (= var7 var10)) (= var1 var11)) (= var2 var12)) (= var3 var13)) (= var4 var14)) (= var5 var15)) (= var6 (writeHeap var16 (nthAddrRange var11 (+ (* 5 var13) (* (- 1) 5))) (O_Int var9)))) (is-O_Int (readHeap var16 (nthAddrRange var11 (+ (* 5 var13) (* (- 1) 5)))))) (is-O_Int (readHeap var16 (nthAddrRange var11 (+ (* 5 var13) (* (- 1) 5)))))) (= var8 var7))) (inv_main50 var6 var5 var4 var3 var8 var1 var7 var0))))
(assert (forall ((var0 Int) (var1 AddrRange) (var2 Int) (var3 Int) (var4 Int) (var5 Int) (var6 Heap) (var7 Int) (var8 Int) (var9 Int) (var10 Int) (var11 AddrRange) (var12 Int) (var13 Int) (var14 Int) (var15 Int) (var16 Heap)) (or (not (and (and (and (and (and (and (and (and (and (and (and (inv_main58 var16 var15 var14 var13 var12 var11 var10 var9) (= var0 var9)) (= var7 var10)) (= var1 var11)) (= var2 var12)) (= var3 var13)) (= var4 var14)) (= var5 var15)) (= var6 (writeHeap var16 (nthAddrRange var11 (+ (* 5 var13) (* (- 1) 3))) (O_Int var12)))) (is-O_Int (readHeap var16 (nthAddrRange var11 (+ (* 5 var13) (* (- 1) 3)))))) (is-O_Int (readHeap var16 (nthAddrRange var11 (+ (* 5 var13) (* (- 1) 3)))))) (not (= var8 var7)))) (inv_main67 var6 var5 var4 var3 var8 var1 var7 var0))))
(assert (forall ((var0 Int) (var1 AddrRange) (var2 Int) (var3 Int) (var4 Int) (var5 Int) (var6 Heap) (var7 Int) (var8 Int) (var9 Int) (var10 Int) (var11 AddrRange) (var12 Int) (var13 Int) (var14 Int) (var15 Int) (var16 Heap)) (or (not (and (and (and (and (and (and (and (and (and (and (and (inv_main59 var16 var15 var14 var13 var12 var11 var10 var9) (= var0 var9)) (= var7 var10)) (= var1 var11)) (= var2 var12)) (= var3 var13)) (= var4 var14)) (= var5 var15)) (= var6 (writeHeap var16 (nthAddrRange var11 (+ (* 5 var13) (* (- 1) 3))) (O_Int var9)))) (is-O_Int (readHeap var16 (nthAddrRange var11 (+ (* 5 var13) (* (- 1) 3)))))) (is-O_Int (readHeap var16 (nthAddrRange var11 (+ (* 5 var13) (* (- 1) 3)))))) (not (= var8 var7)))) (inv_main67 var6 var5 var4 var3 var8 var1 var7 var0))))
(assert (forall ((var0 Int) (var1 AddrRange) (var2 Int) (var3 Int) (var4 Int) (var5 Int) (var6 Heap) (var7 Int) (var8 Int) (var9 Int) (var10 Int) (var11 AddrRange) (var12 Int) (var13 Int) (var14 Int) (var15 Int) (var16 Heap)) (or (not (and (and (and (and (and (and (and (and (and (and (and (inv_main67 var16 var15 var14 var13 var12 var11 var10 var9) (= var0 var9)) (= var7 var10)) (= var1 var11)) (= var2 var12)) (= var3 var13)) (= var4 var14)) (= var5 var15)) (= var6 (writeHeap var16 (nthAddrRange var11 (+ (* 5 var13) (* (- 1) 2))) (O_Int var12)))) (is-O_Int (readHeap var16 (nthAddrRange var11 (+ (* 5 var13) (* (- 1) 2)))))) (is-O_Int (readHeap var16 (nthAddrRange var11 (+ (* 5 var13) (* (- 1) 2)))))) (not (= var8 var7)))) (inv_main75 var6 var5 var4 var3 var8 var1 var7 var0))))
(assert (forall ((var0 Int) (var1 AddrRange) (var2 Int) (var3 Int) (var4 Int) (var5 Int) (var6 Heap) (var7 Int) (var8 Int) (var9 Int) (var10 Int) (var11 AddrRange) (var12 Int) (var13 Int) (var14 Int) (var15 Int) (var16 Heap)) (or (not (and (and (and (and (and (and (and (and (and (and (and (inv_main68 var16 var15 var14 var13 var12 var11 var10 var9) (= var0 var9)) (= var7 var10)) (= var1 var11)) (= var2 var12)) (= var3 var13)) (= var4 var14)) (= var5 var15)) (= var6 (writeHeap var16 (nthAddrRange var11 (+ (* 5 var13) (* (- 1) 2))) (O_Int var9)))) (is-O_Int (readHeap var16 (nthAddrRange var11 (+ (* 5 var13) (* (- 1) 2)))))) (is-O_Int (readHeap var16 (nthAddrRange var11 (+ (* 5 var13) (* (- 1) 2)))))) (not (= var8 var7)))) (inv_main75 var6 var5 var4 var3 var8 var1 var7 var0))))
(assert (forall ((var0 Int) (var1 Int) (var2 AddrRange) (var3 Int) (var4 Int) (var5 Int) (var6 Int) (var7 Heap)) (not (and (inv_main40 var7 var6 var5 var4 var3 var2 var1 var0) (not (is-O_Int (readHeap var7 (nthAddrRange var2 (+ (* 5 var4) (* (- 1) 5))))))))))
(assert (forall ((var0 Int) (var1 Int) (var2 AddrRange) (var3 Int) (var4 Int) (var5 Int) (var6 Int) (var7 Heap)) (not (and (and (inv_main40 var7 var6 var5 var4 var3 var2 var1 var0) (not (withinHeap var2 (nthAddrRange var2 (+ (* 5 var4) (* (- 1) 5)))))) (is-O_Int (readHeap var7 (nthAddrRange var2 (+ (* 5 var4) (* (- 1) 5)))))))))
(assert (forall ((var0 Int) (var1 Int) (var2 AddrRange) (var3 Int) (var4 Int) (var5 Int) (var6 Int) (var7 Heap)) (not (and (and (inv_main40 var7 var6 var5 var4 var3 var2 var1 var0) (not (is-O_Int (readHeap var7 (nthAddrRange var2 (+ (* 5 var4) (* (- 1) 5))))))) (is-O_Int (readHeap var7 (nthAddrRange var2 (+ (* 5 var4) (* (- 1) 5)))))))))
(assert (forall ((var0 Int) (var1 Int) (var2 AddrRange) (var3 Int) (var4 Int) (var5 Int) (var6 Int) (var7 Heap)) (not (and (inv_main41 var7 var6 var5 var4 var3 var2 var1 var0) (not (is-O_Int (readHeap var7 (nthAddrRange var2 (+ (* 5 var4) (* (- 1) 5))))))))))
(assert (forall ((var0 Int) (var1 Int) (var2 AddrRange) (var3 Int) (var4 Int) (var5 Int) (var6 Int) (var7 Heap)) (not (and (and (inv_main41 var7 var6 var5 var4 var3 var2 var1 var0) (not (withinHeap var2 (nthAddrRange var2 (+ (* 5 var4) (* (- 1) 5)))))) (is-O_Int (readHeap var7 (nthAddrRange var2 (+ (* 5 var4) (* (- 1) 5)))))))))
(assert (forall ((var0 Int) (var1 Int) (var2 AddrRange) (var3 Int) (var4 Int) (var5 Int) (var6 Int) (var7 Heap)) (not (and (and (inv_main41 var7 var6 var5 var4 var3 var2 var1 var0) (not (is-O_Int (readHeap var7 (nthAddrRange var2 (+ (* 5 var4) (* (- 1) 5))))))) (is-O_Int (readHeap var7 (nthAddrRange var2 (+ (* 5 var4) (* (- 1) 5)))))))))
(assert (forall ((var0 Int) (var1 Int) (var2 AddrRange) (var3 Int) (var4 Int) (var5 Int) (var6 Int) (var7 Heap)) (not (and (inv_main49 var7 var6 var5 var4 var3 var2 var1 var0) (not (is-O_Int (readHeap var7 (nthAddrRange var2 (+ (* 5 var4) (* (- 1) 4))))))))))
(assert (forall ((var0 Int) (var1 Int) (var2 AddrRange) (var3 Int) (var4 Int) (var5 Int) (var6 Int) (var7 Heap)) (not (and (and (inv_main49 var7 var6 var5 var4 var3 var2 var1 var0) (not (withinHeap var2 (nthAddrRange var2 (+ (* 5 var4) (* (- 1) 4)))))) (is-O_Int (readHeap var7 (nthAddrRange var2 (+ (* 5 var4) (* (- 1) 4)))))))))
(assert (forall ((var0 Int) (var1 Int) (var2 AddrRange) (var3 Int) (var4 Int) (var5 Int) (var6 Int) (var7 Heap)) (not (and (and (inv_main49 var7 var6 var5 var4 var3 var2 var1 var0) (not (is-O_Int (readHeap var7 (nthAddrRange var2 (+ (* 5 var4) (* (- 1) 4))))))) (is-O_Int (readHeap var7 (nthAddrRange var2 (+ (* 5 var4) (* (- 1) 4)))))))))
(assert (forall ((var0 Int) (var1 Int) (var2 AddrRange) (var3 Int) (var4 Int) (var5 Int) (var6 Int) (var7 Heap)) (not (and (inv_main50 var7 var6 var5 var4 var3 var2 var1 var0) (not (is-O_Int (readHeap var7 (nthAddrRange var2 (+ (* 5 var4) (* (- 1) 4))))))))))
(assert (forall ((var0 Int) (var1 Int) (var2 AddrRange) (var3 Int) (var4 Int) (var5 Int) (var6 Int) (var7 Heap)) (not (and (and (inv_main50 var7 var6 var5 var4 var3 var2 var1 var0) (not (withinHeap var2 (nthAddrRange var2 (+ (* 5 var4) (* (- 1) 4)))))) (is-O_Int (readHeap var7 (nthAddrRange var2 (+ (* 5 var4) (* (- 1) 4)))))))))
(assert (forall ((var0 Int) (var1 Int) (var2 AddrRange) (var3 Int) (var4 Int) (var5 Int) (var6 Int) (var7 Heap)) (not (and (and (inv_main50 var7 var6 var5 var4 var3 var2 var1 var0) (not (is-O_Int (readHeap var7 (nthAddrRange var2 (+ (* 5 var4) (* (- 1) 4))))))) (is-O_Int (readHeap var7 (nthAddrRange var2 (+ (* 5 var4) (* (- 1) 4)))))))))
(assert (forall ((var0 Int) (var1 Int) (var2 AddrRange) (var3 Int) (var4 Int) (var5 Int) (var6 Int) (var7 Heap)) (not (and (inv_main58 var7 var6 var5 var4 var3 var2 var1 var0) (not (is-O_Int (readHeap var7 (nthAddrRange var2 (+ (* 5 var4) (* (- 1) 3))))))))))
(assert (forall ((var0 Int) (var1 Int) (var2 AddrRange) (var3 Int) (var4 Int) (var5 Int) (var6 Int) (var7 Heap)) (not (and (and (inv_main58 var7 var6 var5 var4 var3 var2 var1 var0) (not (withinHeap var2 (nthAddrRange var2 (+ (* 5 var4) (* (- 1) 3)))))) (is-O_Int (readHeap var7 (nthAddrRange var2 (+ (* 5 var4) (* (- 1) 3)))))))))
(assert (forall ((var0 Int) (var1 Int) (var2 AddrRange) (var3 Int) (var4 Int) (var5 Int) (var6 Int) (var7 Heap)) (not (and (and (inv_main58 var7 var6 var5 var4 var3 var2 var1 var0) (not (is-O_Int (readHeap var7 (nthAddrRange var2 (+ (* 5 var4) (* (- 1) 3))))))) (is-O_Int (readHeap var7 (nthAddrRange var2 (+ (* 5 var4) (* (- 1) 3)))))))))
(assert (forall ((var0 Int) (var1 Int) (var2 AddrRange) (var3 Int) (var4 Int) (var5 Int) (var6 Int) (var7 Heap)) (not (and (inv_main59 var7 var6 var5 var4 var3 var2 var1 var0) (not (is-O_Int (readHeap var7 (nthAddrRange var2 (+ (* 5 var4) (* (- 1) 3))))))))))
(assert (forall ((var0 Int) (var1 Int) (var2 AddrRange) (var3 Int) (var4 Int) (var5 Int) (var6 Int) (var7 Heap)) (not (and (and (inv_main59 var7 var6 var5 var4 var3 var2 var1 var0) (not (withinHeap var2 (nthAddrRange var2 (+ (* 5 var4) (* (- 1) 3)))))) (is-O_Int (readHeap var7 (nthAddrRange var2 (+ (* 5 var4) (* (- 1) 3)))))))))
(assert (forall ((var0 Int) (var1 Int) (var2 AddrRange) (var3 Int) (var4 Int) (var5 Int) (var6 Int) (var7 Heap)) (not (and (and (inv_main59 var7 var6 var5 var4 var3 var2 var1 var0) (not (is-O_Int (readHeap var7 (nthAddrRange var2 (+ (* 5 var4) (* (- 1) 3))))))) (is-O_Int (readHeap var7 (nthAddrRange var2 (+ (* 5 var4) (* (- 1) 3)))))))))
(assert (forall ((var0 Int) (var1 Int) (var2 AddrRange) (var3 Int) (var4 Int) (var5 Int) (var6 Int) (var7 Heap)) (not (and (inv_main67 var7 var6 var5 var4 var3 var2 var1 var0) (not (is-O_Int (readHeap var7 (nthAddrRange var2 (+ (* 5 var4) (* (- 1) 2))))))))))
(assert (forall ((var0 Int) (var1 Int) (var2 AddrRange) (var3 Int) (var4 Int) (var5 Int) (var6 Int) (var7 Heap)) (not (and (and (inv_main67 var7 var6 var5 var4 var3 var2 var1 var0) (not (withinHeap var2 (nthAddrRange var2 (+ (* 5 var4) (* (- 1) 2)))))) (is-O_Int (readHeap var7 (nthAddrRange var2 (+ (* 5 var4) (* (- 1) 2)))))))))
(assert (forall ((var0 Int) (var1 Int) (var2 AddrRange) (var3 Int) (var4 Int) (var5 Int) (var6 Int) (var7 Heap)) (not (and (and (inv_main67 var7 var6 var5 var4 var3 var2 var1 var0) (not (is-O_Int (readHeap var7 (nthAddrRange var2 (+ (* 5 var4) (* (- 1) 2))))))) (is-O_Int (readHeap var7 (nthAddrRange var2 (+ (* 5 var4) (* (- 1) 2)))))))))
(assert (forall ((var0 Int) (var1 Int) (var2 AddrRange) (var3 Int) (var4 Int) (var5 Int) (var6 Int) (var7 Heap)) (not (and (inv_main68 var7 var6 var5 var4 var3 var2 var1 var0) (not (is-O_Int (readHeap var7 (nthAddrRange var2 (+ (* 5 var4) (* (- 1) 2))))))))))
(assert (forall ((var0 Int) (var1 Int) (var2 AddrRange) (var3 Int) (var4 Int) (var5 Int) (var6 Int) (var7 Heap)) (not (and (and (inv_main68 var7 var6 var5 var4 var3 var2 var1 var0) (not (withinHeap var2 (nthAddrRange var2 (+ (* 5 var4) (* (- 1) 2)))))) (is-O_Int (readHeap var7 (nthAddrRange var2 (+ (* 5 var4) (* (- 1) 2)))))))))
(assert (forall ((var0 Int) (var1 Int) (var2 AddrRange) (var3 Int) (var4 Int) (var5 Int) (var6 Int) (var7 Heap)) (not (and (and (inv_main68 var7 var6 var5 var4 var3 var2 var1 var0) (not (is-O_Int (readHeap var7 (nthAddrRange var2 (+ (* 5 var4) (* (- 1) 2))))))) (is-O_Int (readHeap var7 (nthAddrRange var2 (+ (* 5 var4) (* (- 1) 2)))))))))
(assert (forall ((var0 Int) (var1 Int) (var2 AddrRange) (var3 Int) (var4 Int) (var5 Int) (var6 Int) (var7 Heap)) (not (and (inv_main75 var7 var6 var5 var4 var3 var2 var1 var0) (not (is-O_Int (readHeap var7 (nthAddrRange var2 (+ (* 5 var4) (* (- 1) 1))))))))))
(assert (forall ((var0 Int) (var1 Int) (var2 AddrRange) (var3 Int) (var4 Int) (var5 Int) (var6 Int) (var7 Heap)) (not (and (and (inv_main75 var7 var6 var5 var4 var3 var2 var1 var0) (not (withinHeap var2 (nthAddrRange var2 (+ (* 5 var4) (* (- 1) 1)))))) (is-O_Int (readHeap var7 (nthAddrRange var2 (+ (* 5 var4) (* (- 1) 1)))))))))
(assert (forall ((var0 Int) (var1 Int) (var2 AddrRange) (var3 Int) (var4 Int) (var5 Int) (var6 Int) (var7 Heap)) (not (and (and (inv_main75 var7 var6 var5 var4 var3 var2 var1 var0) (not (is-O_Int (readHeap var7 (nthAddrRange var2 (+ (* 5 var4) (* (- 1) 1))))))) (is-O_Int (readHeap var7 (nthAddrRange var2 (+ (* 5 var4) (* (- 1) 1)))))))))
(assert (forall ((var0 Int) (var1 Int) (var2 AddrRange) (var3 Int) (var4 Int) (var5 Int) (var6 Int) (var7 Heap)) (not (and (inv_main76 var7 var6 var5 var4 var3 var2 var1 var0) (not (is-O_Int (readHeap var7 (nthAddrRange var2 (+ (* 5 var4) (* (- 1) 1))))))))))
(assert (forall ((var0 Int) (var1 Int) (var2 AddrRange) (var3 Int) (var4 Int) (var5 Int) (var6 Int) (var7 Heap)) (not (and (and (inv_main76 var7 var6 var5 var4 var3 var2 var1 var0) (not (withinHeap var2 (nthAddrRange var2 (+ (* 5 var4) (* (- 1) 1)))))) (is-O_Int (readHeap var7 (nthAddrRange var2 (+ (* 5 var4) (* (- 1) 1)))))))))
(assert (forall ((var0 Int) (var1 Int) (var2 AddrRange) (var3 Int) (var4 Int) (var5 Int) (var6 Int) (var7 Heap)) (not (and (and (inv_main76 var7 var6 var5 var4 var3 var2 var1 var0) (not (is-O_Int (readHeap var7 (nthAddrRange var2 (+ (* 5 var4) (* (- 1) 1))))))) (is-O_Int (readHeap var7 (nthAddrRange var2 (+ (* 5 var4) (* (- 1) 1)))))))))
(assert (forall ((var0 Int) (var1 Int) (var2 AddrRange) (var3 Int) (var4 Int) (var5 Int) (var6 Int) (var7 Heap)) (not (and (inv_main78 var7 var6 var5 var4 var3 var2 var1 var0) (not (is-O_Int (readHeap var7 (nthAddrRange var2 var4))))))))
(assert (forall ((var0 Int) (var1 Int) (var2 AddrRange) (var3 Int) (var4 Int) (var5 Int) (var6 Int) (var7 Heap)) (not (and (inv_main78 var7 var6 var5 var4 var3 var2 var1 var0) (not (withinHeap var2 (nthAddrRange var2 var4)))))))
(assert (forall ((var0 Int) (var1 Int) (var2 AddrRange) (var3 Int) (var4 Int) (var5 Int) (var6 Int) (var7 Heap)) (not (and (inv_main78 var7 var6 var5 var4 var3 var2 var1 var0) (not (is-O_Int (readHeap var7 (nthAddrRange var2 var4))))))))
(assert (forall ((var0 Int) (var1 Int) (var2 AddrRange) (var3 Int) (var4 Int) (var5 Int) (var6 Int) (var7 Heap)) (not (and (and (inv_main78 var7 var6 var5 var4 var3 var2 var1 var0) (not (withinHeap var2 (nthAddrRange var2 var4)))) (is-O_Int (readHeap var7 (nthAddrRange var2 var4)))))))
(assert (forall ((var0 Int) (var1 Int) (var2 AddrRange) (var3 Int) (var4 Int) (var5 Int) (var6 Int) (var7 Heap)) (not (and (and (inv_main78 var7 var6 var5 var4 var3 var2 var1 var0) (= (getInt (readHeap var7 (nthAddrRange var2 var4))) var1)) (is-O_Int (readHeap var7 (nthAddrRange var2 var4)))))))
(check-sat)
